#=======================================================
# FHI-aims file: geometry-primitive.in
# Created using the Atomic Simulation Environment (ASE)
# Tue Mar 19 06:15:58 2024
#=======================================================
lattice_vector -2.5000000000000000 2.5000000000000000 48.0000000000000000 
lattice_vector 2.5000000000000000 -2.5000000000000000 48.0000000000000000 
lattice_vector 2.5000000000000000 2.5000000000000000 -48.0000000000000000 
atom_frac 0.7656250000000000 0.7656250000000000 0.0000000000000000 Ba
atom_frac 0.8177083333333335 0.8177083333333335 -0.0000000000000000 Ba
atom_frac 0.2916666666666668 0.2916666666666667 0.0000000000000000 Zr
atom_frac 0.3437500000000001 0.3437500000000001 0.0000000000000000 Zr
atom_frac 0.2656250000000001 0.2656250000000001 0.0000000000000000 S
atom_frac 0.3177083333333334 0.3177083333333334 -0.0000000000000000 S
atom_frac 0.7916666666666666 0.2916666666666667 0.5000000000000000 S
atom_frac 0.8437500000000000 0.3437500000000000 0.5000000000000000 S
atom_frac 0.2916666666666668 0.7916666666666667 0.5000000000000000 S
atom_frac 0.3437500000000000 0.8437500000000000 0.5000000000000000 S
atom_frac 0.8697916666666666 0.8697916666666666 -0.0000000000000000 Ba
atom_frac 0.9218750000000000 0.9218750000000000 0.0000000000000000 Ba
atom_frac 0.3958333333333334 0.3958333333333334 -0.0000000000000000 Zr
atom_frac 0.4479166666666667 0.4479166666666667 -0.0000000000000000 Zr
atom_frac 0.3697916666666667 0.3697916666666667 0.0000000000000000 S
atom_frac 0.4218750000000001 0.4218750000000000 -0.0000000000000000 S
atom_frac 0.8958333333333336 0.3958333333333334 0.5000000000000000 S
atom_frac 0.9479166666666666 0.4479166666666666 0.5000000000000000 S
atom_frac 0.3958333333333335 0.8958333333333335 0.5000000000000000 S
atom_frac 0.4479166666666666 0.9479166666666666 0.5000000000000000 S
atom_frac 0.9739583333333335 0.9739583333333335 -0.0000000000000000 Ba
atom_frac 0.0260416666666666 0.0260416666666666 0.0000000000000000 Ba
atom_frac 0.5000000000000000 0.5000000000000000 0.0000000000000000 Zr
atom_frac 0.5520833333333333 0.5520833333333333 0.0000000000000000 Zr
atom_frac 0.4739583333333334 0.4739583333333334 0.0000000000000000 S
atom_frac 0.5260416666666666 0.5260416666666666 0.0000000000000000 S
atom_frac 0.0000000000000000 0.5000000000000000 0.5000000000000000 S
atom_frac 0.0520833333333333 0.5520833333333333 0.5000000000000000 S
atom_frac 0.5000000000000000 -0.0000000000000000 0.5000000000000000 S
atom_frac 0.5520833333333333 0.0520833333333332 0.5000000000000000 S
atom_frac 0.0781249999999999 0.0781249999999999 0.0000000000000000 Ba
atom_frac 0.1302083333333333 0.1302083333333332 0.0000000000000000 Ba
atom_frac 0.6041666666666666 0.6041666666666666 0.0000000000000000 Zr
atom_frac 0.6562499999999998 0.6562499999999999 -0.0000000000000000 Zr
atom_frac 0.5781249999999998 0.5781249999999999 -0.0000000000000000 S
atom_frac 0.6302083333333333 0.6302083333333333 0.0000000000000000 S
atom_frac 0.1041666666666667 0.6041666666666666 0.5000000000000000 S
atom_frac 0.1562499999999998 0.6562499999999999 0.5000000000000000 S
atom_frac 0.6041666666666666 0.1041666666666667 0.5000000000000000 S
atom_frac 0.6562499999999998 0.1562499999999998 0.5000000000000000 S
atom_frac 0.1822916666666666 0.1822916666666666 0.0000000000000000 Ba
atom_frac 0.2343749999999999 0.2343749999999999 -0.0000000000000000 Ba
atom_frac 0.7083333333333333 0.7083333333333334 0.0000000000000000 Zr
atom_frac 0.6822916666666666 0.6822916666666666 0.0000000000000000 S
atom_frac 0.7343749999999998 0.7343749999999999 -0.0000000000000000 S
atom_frac 0.2083333333333332 0.7083333333333333 0.5000000000000000 S
atom_frac 0.7083333333333333 0.2083333333333333 0.5000000000000000 S
