#=======================================================
# FHI-aims file: geometry.in-1
# Created using the Atomic Simulation Environment (ASE)
# Tue Mar 19 19:36:52 2024
#=======================================================
lattice_vector 5.0000000000000000 0.0000000000000000 0.0000000000000000 
lattice_vector 0.0000000000000000 5.0000000000000000 0.0000000000000000 
lattice_vector 0.0000000000000000 0.0000000000000000 35.0000000000000000 
atom 0.0000000000000000 0.0000000000000000 0.0000000000000000 Ba
atom 2.5000000000000000 0.0000000000000000 0.0000000000000000 Ba
atom 0.0000000000000000 2.5000000000000000 0.0000000000000000 Ba
atom 2.5000000000000000 2.5000000000000000 0.0000000000000000 Ba
atom 0.0000000000000000 0.0000000000000000 2.5000000000000000 Ba
atom 2.5000000000000000 0.0000000000000000 2.5000000000000000 Ba
atom 0.0000000000000000 2.5000000000000000 2.5000000000000000 Ba
atom 2.5000000000000000 2.5000000000000000 2.5000000000000000 Ba
atom 1.2500000000000000 1.2500000000000000 1.2500000000000000 Zr
atom 3.7500000000000000 1.2500000000000000 1.2500000000000000 Zr
atom 1.2500000000000000 3.7500000000000000 1.2500000000000000 Zr
atom 3.7500000000000000 3.7500000000000000 1.2500000000000000 Zr
atom 1.2500000000000000 1.2500000000000000 0.0000000000000000 S
atom 3.7500000000000000 1.2500000000000000 0.0000000000000000 S
atom 1.2500000000000000 3.7500000000000000 0.0000000000000000 S
atom 3.7500000000000000 3.7500000000000000 0.0000000000000000 S
atom 1.2500000000000000 1.2500000000000000 2.5000000000000000 S
atom 3.7500000000000000 1.2500000000000000 2.5000000000000000 S
atom 1.2500000000000000 3.7500000000000000 2.5000000000000000 S
atom 3.7500000000000000 3.7500000000000000 2.5000000000000000 S
atom 1.2500000000000000 0.0000000000000000 1.2500000000000000 S
atom 3.7500000000000000 0.0000000000000000 1.2500000000000000 S
atom 1.2500000000000000 2.5000000000000000 1.2500000000000000 S
atom 3.7500000000000000 2.5000000000000000 1.2500000000000000 S
atom 0.0000000000000000 1.2500000000000000 1.2500000000000000 S
atom 2.5000000000000000 1.2500000000000000 1.2500000000000000 S
atom 0.0000000000000000 3.7500000000000000 1.2500000000000000 S
atom 2.5000000000000000 3.7500000000000000 1.2500000000000000 S
atom 1.2500000000000000 1.2500000000000000 17.5000000000000000 Ba
atom 3.7500000000000000 1.2500000000000000 17.5000000000000000 Ba
atom 1.2500000000000000 3.7500000000000000 17.5000000000000000 Ba
atom 3.7500000000000000 3.7500000000000000 17.5000000000000000 Ba
atom 1.2500000000000000 1.2500000000000000 20.0000000000000000 Ba
atom 3.7500000000000000 1.2500000000000000 20.0000000000000000 Ba
atom 1.2500000000000000 3.7500000000000000 20.0000000000000000 Ba
atom 3.7500000000000000 3.7500000000000000 20.0000000000000000 Ba
atom 2.5000000000000000 2.5000000000000000 18.7500000000000000 Zr
atom 5.0000000000000000 2.5000000000000000 18.7500000000000000 Zr
atom 2.5000000000000000 5.0000000000000000 18.7500000000000000 Zr
atom 5.0000000000000000 5.0000000000000000 18.7500000000000000 Zr
atom 2.5000000000000000 2.5000000000000000 17.5000000000000000 S
atom 5.0000000000000000 2.5000000000000000 17.5000000000000000 S
atom 2.5000000000000000 5.0000000000000000 17.5000000000000000 S
atom 5.0000000000000000 5.0000000000000000 17.5000000000000000 S
atom 2.5000000000000000 2.5000000000000000 20.0000000000000000 S
atom 5.0000000000000000 2.5000000000000000 20.0000000000000000 S
atom 2.5000000000000000 5.0000000000000000 20.0000000000000000 S
atom 5.0000000000000000 5.0000000000000000 20.0000000000000000 S
atom 2.5000000000000000 1.2500000000000000 18.7500000000000000 S
atom 5.0000000000000000 1.2500000000000000 18.7500000000000000 S
atom 2.5000000000000000 3.7500000000000000 18.7500000000000000 S
atom 5.0000000000000000 3.7500000000000000 18.7500000000000000 S
atom 1.2500000000000000 2.5000000000000000 18.7500000000000000 S
atom 3.7500000000000000 2.5000000000000000 18.7500000000000000 S
atom 1.2500000000000000 5.0000000000000000 18.7500000000000000 S
atom 3.7500000000000000 5.0000000000000000 18.7500000000000000 S
