lattice_vector   5.0051839999999999    0.0000000000000000    0.0000000000000003
lattice_vector   0.0000000000000008    5.0051839999999999    0.0000000000000003
lattice_vector   0.0000000000000000    0.0000000000000000   55.7695039999999977
atom_frac   0.5000000000000000    0.5000000000000000    0.2178920000000000 Ba
atom_frac   0.0000000000000000    0.0000000000000000    0.3672300000000000 Ba
atom_frac   0.5000000000000000    0.5000000000000000    0.0445040000000000 Ba
atom_frac   0.5000000000000000    0.5000000000000000    0.1327700000000000 Ba
atom_frac   0.0000000000000000    0.0000000000000000    0.4554960000000000 Ba
atom_frac   0.0000000000000000    0.0000000000000000    0.2821080000000000 Ba
atom_frac   0.0000000000000000    0.0000000000000000    0.7178920000000000 Ba
atom_frac   0.5000000000000000    0.5000000000000000    0.8672299999999999 Ba
atom_frac   0.0000000000000000    0.0000000000000000    0.5445040000000000 Ba
atom_frac   0.0000000000000000    0.0000000000000000    0.6327700000000001 Ba
atom_frac   0.5000000000000000    0.5000000000000000    0.9554960000000000 Ba
atom_frac   0.5000000000000000    0.5000000000000000    0.7821080000000000 Ba
atom_frac   0.5000000000000000    0.5000000000000000    0.4095890000000000 Zr
atom_frac   0.0000000000000000    0.0000000000000000    0.0000000000000000 Zr
atom_frac   0.5000000000000000    0.5000000000000000    0.3186380000000000 Zr
atom_frac   0.0000000000000000    0.0000000000000000    0.1813620000000000 Zr
atom_frac   0.0000000000000000    0.0000000000000000    0.0904110000000000 Zr
atom_frac   0.0000000000000000    0.0000000000000000    0.9095890000000000 Zr
atom_frac   0.5000000000000000    0.5000000000000000    0.5000000000000000 Zr
atom_frac   0.0000000000000000    0.0000000000000000    0.8186380000000000 Zr
atom_frac   0.5000000000000000    0.5000000000000000    0.6813620000000000 Zr
atom_frac   0.5000000000000000    0.5000000000000000    0.5904110000000000 Zr
atom_frac   0.5000000000000000    0.5000000000000000    0.2740780000000000 S
atom_frac   0.5000000000000000    0.5000000000000000    0.4549450000000000 S
atom_frac   0.5000000000000000    0.0000000000000000    0.1789500000000000 S
atom_frac   0.0000000000000000    0.5000000000000000    0.4101330000000000 S
atom_frac   0.5000000000000000    0.0000000000000000    0.4101330000000000 S
atom_frac   0.0000000000000000    0.5000000000000000    0.3210499999999999 S
atom_frac   0.0000000000000000    0.5000000000000000    0.1789500000000000 S
atom_frac   0.5000000000000000    0.0000000000000000    0.3210499999999999 S
atom_frac   0.5000000000000000    0.0000000000000000    0.0898670000000000 S
atom_frac   0.0000000000000000    0.0000000000000000    0.1349860000000000 S
atom_frac   0.5000000000000000    0.5000000000000000    0.3650140000000000 S
atom_frac   0.0000000000000000    0.0000000000000000    0.2259220000000000 S
atom_frac   0.0000000000000000    0.5000000000000000    0.0898670000000000 S
atom_frac   0.0000000000000000    0.5000000000000000    0.0000000000000000 S
atom_frac   0.0000000000000000    0.0000000000000000    0.0450550000000000 S
atom_frac   0.5000000000000000    0.0000000000000000    0.0000000000000000 S
atom_frac   0.0000000000000000    0.0000000000000000    0.7740780000000000 S
atom_frac   0.0000000000000000    0.0000000000000000    0.9549450000000000 S
atom_frac   0.0000000000000000    0.5000000000000000    0.6789500000000001 S
atom_frac   0.5000000000000000    0.0000000000000000    0.9101330000000000 S
atom_frac   0.0000000000000000    0.5000000000000000    0.9101330000000000 S
atom_frac   0.5000000000000000    0.0000000000000000    0.8210499999999999 S
atom_frac   0.5000000000000000    0.0000000000000000    0.6789500000000001 S
atom_frac   0.0000000000000000    0.5000000000000000    0.8210499999999999 S
atom_frac   0.0000000000000000    0.5000000000000000    0.5898670000000000 S
atom_frac   0.5000000000000000    0.5000000000000000    0.6349860000000001 S
atom_frac   0.0000000000000000    0.0000000000000000    0.8650139999999999 S
atom_frac   0.5000000000000000    0.5000000000000000    0.7259220000000000 S
atom_frac   0.5000000000000000    0.0000000000000000    0.5898670000000000 S
atom_frac   0.5000000000000000    0.0000000000000000    0.5000000000000000 S
atom_frac   0.5000000000000000    0.5000000000000000    0.5450550000000000 S
atom_frac   0.0000000000000000    0.5000000000000000    0.5000000000000000 S
