#=======================================================
# FHI-aims file: ./geometry.in
# Created using the Atomic Simulation Environment (ASE)
# Tue Mar 19 06:24:49 2024
#=======================================================
lattice_vector -2.5000000000000004 2.5000000000000004 42.9999999999999929 
lattice_vector 2.5000000000000004 -2.5000000000000004 42.9999999999999929 
lattice_vector 2.5000000000000004 2.5000000000000004 -42.9999999999999929 
atom_frac 0.7674418604651162 0.7674418604651162 0.0000000000000000 Ba
atom_frac 0.8255813953488375 0.8255813953488372 -0.0000000000000000 Ba
atom_frac 0.2965116279069767 0.2965116279069768 0.0000000000000000 Zr
atom_frac 0.3546511627906979 0.3546511627906978 0.0000000000000000 Zr
atom_frac 0.2674418604651164 0.2674418604651164 -0.0000000000000000 S
atom_frac 0.3255813953488372 0.3255813953488372 0.0000000000000000 S
atom_frac 0.7965116279069767 0.2965116279069768 0.5000000000000000 S
atom_frac 0.8546511627906980 0.3546511627906979 0.5000000000000000 S
atom_frac 0.2965116279069768 0.7965116279069767 0.5000000000000000 S
atom_frac 0.3546511627906980 0.8546511627906979 0.5000000000000000 S
atom_frac 0.8837209302325580 0.8837209302325580 0.0000000000000000 Ba
atom_frac 0.9418604651162792 0.9418604651162790 -0.0000000000000000 Ba
atom_frac 0.4127906976744187 0.4127906976744186 0.0000000000000000 Zr
atom_frac 0.4709302325581399 0.4709302325581398 0.0000000000000000 Zr
atom_frac 0.3837209302325582 0.3837209302325582 0.0000000000000000 S
atom_frac 0.4418604651162792 0.4418604651162792 -0.0000000000000000 S
atom_frac 0.9127906976744188 0.4127906976744186 0.5000000000000000 S
atom_frac 0.9709302325581397 0.4709302325581395 0.5000000000000000 S
atom_frac 0.4127906976744188 0.9127906976744187 0.5000000000000000 S
atom_frac 0.4709302325581398 0.9709302325581395 0.5000000000000000 S
atom_frac 0.0000000000000000 -0.0000000000000000 0.0000000000000000 Ba
atom_frac 0.0581395348837209 0.0581395348837209 -0.0000000000000000 Ba
atom_frac 0.5290697674418602 0.5290697674418602 -0.0000000000000000 Zr
atom_frac 0.5872093023255812 0.5872093023255811 -0.0000000000000000 Zr
atom_frac 0.5000000000000000 0.5000000000000000 0.0000000000000000 S
atom_frac 0.5581395348837208 0.5581395348837207 -0.0000000000000000 S
atom_frac 0.0290697674418604 0.5290697674418603 0.5000000000000000 S
atom_frac 0.0872093023255812 0.5872093023255812 0.5000000000000000 S
atom_frac 0.5290697674418604 0.0290697674418603 0.5000000000000000 S
atom_frac 0.5872093023255812 0.0872093023255813 0.5000000000000000 S
atom_frac 0.1162790697674418 0.1162790697674418 0.0000000000000000 Ba
atom_frac 0.1744186046511625 0.1744186046511625 -0.0000000000000000 Ba
atom_frac 0.6453488372093020 0.6453488372093020 -0.0000000000000000 Zr
atom_frac 0.7034883720930231 0.7034883720930231 -0.0000000000000000 Zr
atom_frac 0.6162790697674416 0.6162790697674416 -0.0000000000000000 S
atom_frac 0.6744186046511628 0.6744186046511625 -0.0000000000000000 S
atom_frac 0.1453488372093020 0.6453488372093021 0.5000000000000000 S
atom_frac 0.2034883720930231 0.7034883720930232 0.5000000000000000 S
atom_frac 0.6453488372093020 0.1453488372093021 0.5000000000000000 S
atom_frac 0.7034883720930231 0.2034883720930232 0.5000000000000000 S
atom_frac 0.2325581395348838 0.2325581395348838 -0.0000000000000000 Ba
atom_frac 0.7325581395348836 0.7325581395348836 0.0000000000000000 S
