Automatic mesh
0              ! number of k-points = 0 ->automatic generation scheme 
Gamma          ! generate a Gamma centered grid
2  2  2
0. 0. 0.       ! optional shift of the mesh (s_1, s_2, s_3)
