CNH6PbI3:Ii:Cs - this line can contain any text (it is not parsed)
1.0
17.635604 -0.037936 0.045528
-0.109729 17.145780 -0.124790
0.170279 -0.225191 12.719158
C N H Pb I Cs
12 12 72 16 49 4
direct
0.197426 0.041047 0.241607 C
0.733025 0.533521 0.247732 C
0.703982 0.548239 0.741101 C
0.977891 0.772342 0.702167 C
0.214104 0.017663 0.740736 C
0.494795 0.285551 0.212137 C
0.023230 0.311170 0.737263 C
0.202486 0.535471 0.241208 C
0.230194 0.526937 0.745013 C
0.483947 0.786406 0.207310 C
0.696394 0.014700 0.244893 C
0.693249 0.027417 0.739755 C
0.271744 0.001676 0.240849 N
0.768122 0.457314 0.266483 N
0.776431 0.505553 0.739235 N
0.013872 0.737680 0.794123 N
0.266242 0.962395 0.789001 N
0.543658 0.239111 0.279681 N
0.025190 0.225151 0.739398 N
0.276510 0.495461 0.239256 N
0.279482 0.467032 0.788789 N
0.517722 0.744629 0.295246 N
0.772531 0.979101 0.243581 N
0.772878 0.001012 0.735023 N
0.166145 0.021932 0.171242 H
0.747024 0.551029 0.167026 H
0.669766 0.527950 0.674068 H
0.003494 0.747067 0.629652 H
0.218720 0.011467 0.654571 H
0.504868 0.267204 0.129620 H
0.993634 0.328434 0.666033 H
0.170616 0.516901 0.171118 H
0.233250 0.522913 0.658614 H
0.508321 0.763684 0.132542 H
0.665067 0.992221 0.176260 H
0.664828 0.007897 0.667207 H
0.207097 0.104564 0.240938 H
0.755598 0.576487 0.305081 H
0.716178 0.611072 0.735174 H
0.987034 0.835959 0.705233 H
0.229953 0.077437 0.765890 H
0.509380 0.347736 0.223032 H
0.081583 0.334295 0.736446 H
0.212650 0.598877 0.240744 H
0.250096 0.584776 0.772626 H
0.496713 0.849134 0.216554 H
0.703273 0.078502 0.241043 H
0.693053 0.091474 0.746832 H
0.165796 0.025100 0.313285 H
0.671134 0.527628 0.257854 H
0.673684 0.536822 0.815483 H
0.916661 0.759459 0.704807 H
0.155673 0.004346 0.766808 H
0.435076 0.275682 0.234659 H
0.992149 0.332965 0.807612 H
0.171248 0.519800 0.313319 H
0.171495 0.516890 0.772570 H
0.422111 0.777081 0.208954 H
0.666590 0.998947 0.318072 H
0.665118 0.002214 0.809097 H
0.303422 0.017410 0.174199 H
0.827565 0.460690 0.262073 H
0.807613 0.517942 0.670712 H
0.072439 0.748419 0.793877 H
0.323149 0.973625 0.768268 H
0.601680 0.245630 0.259964 H
0.052318 0.201540 0.672102 H
0.308046 0.510796 0.172326 H
0.336687 0.474565 0.765669 H
0.576616 0.752932 0.296539 H
0.802645 0.995041 0.175553 H
0.801266 0.023167 0.669135 H
0.265897 0.940781 0.240463 H
0.749814 0.414555 0.212363 H
0.765276 0.445497 0.741895 H
0.006665 0.676750 0.793128 H
0.253297 0.904220 0.767922 H
0.530378 0.179544 0.272813 H
0.969453 0.202649 0.740493 H
0.269369 0.434707 0.238857 H
0.262892 0.410163 0.766762 H
0.507933 0.684210 0.288165 H
0.768786 0.918222 0.245339 H
0.775535 0.939970 0.731361 H
0.302260 0.019297 0.307712 H
0.751962 0.437009 0.340500 H
0.809019 0.522633 0.804264 H
0.990817 0.759941 0.864980 H
0.262606 0.966485 0.870854 H
0.537869 0.255200 0.358911 H
0.051465 0.205295 0.806878 H
0.307661 0.512770 0.305610 H
0.278304 0.470232 0.870804 H
0.495059 0.763949 0.367787 H
0.803405 -0.000839 0.308884 H
0.802013 0.020828 0.801824 H
0.237626 0.752136 0.487205 Pb
0.740041 0.254197 0.557707 Pb
0.736816 0.256001 0.971763 Pb
0.993027 0.507385 0.495380 Pb
0.986332 0.505201 0.998020 Pb
0.240427 0.751581 0.994378 Pb
0.481714 0.006235 0.491419 Pb
0.485682 0.012172 0.992906 Pb
0.984549 0.006570 0.489856 Pb
0.981287 0.004212 0.988144 Pb
0.237433 0.258541 0.485442 Pb
0.232721 0.257210 0.995889 Pb
0.489669 0.500316 0.489955 Pb
0.497682 0.504395 0.993528 Pb
0.740517 0.754460 0.493116 Pb
0.737866 0.755862 0.989223 Pb
0.252193 0.786353 0.238875 I
0.741699 0.247431 0.224766 I
0.828397 0.200086 0.751225 I
0.971972 0.486537 0.247171 I
0.991128 0.531626 0.747591 I
0.216432 0.760881 0.739655 I
0.483437 0.034849 0.241662 I
0.461691 0.013328 0.740366 I
0.980057 0.021184 0.237598 I
0.981803 0.009567 0.738147 I
0.223523 0.287413 0.239663 I
0.242430 0.259952 0.738676 I
0.489091 0.537009 0.241422 I
0.475672 0.492667 0.739627 I
0.720426 0.769270 0.239194 I
0.747927 0.789857 0.738793 I
0.386619 0.854878 0.967825 I
0.889235 0.351599 -0.003020 I
0.879503 0.359821 0.496107 I
0.086873 0.657507 0.026192 I
0.083080 0.661958 0.456006 I
0.398411 0.839557 0.496190 I
0.578198 0.165107 0.965748 I
0.586157 0.153744 0.522804 I
0.075741 0.165070 0.995087 I
0.079145 0.166393 0.481700 I
0.383937 0.357083 0.990831 I
0.398823 0.339405 0.476140 I
0.584354 0.662808 0.965151 I
0.589522 0.653365 0.518671 I
0.902866 0.837529 0.000597 I
0.890114 0.851216 0.459522 I
0.136837 0.906309 0.479321 I
0.632943 0.394829 0.452338 I
0.661205 0.338705 0.748465 I
0.644598 0.409548 0.035823 I
0.835938 0.600655 0.506187 I
0.831340 0.600582 0.978194 I
0.137358 0.905002 0.996928 I
0.324558 0.094199 0.483372 I
0.323540 0.096566 0.001214 I
0.823821 0.086899 0.477537 I
0.818441 0.074338 0.003125 I
0.145284 0.413979 0.502060 I
0.140140 0.413046 0.982865 I
0.331347 0.594575 0.477541 I
0.335733 0.595795 0.003882 I
0.626869 0.898252 0.495499 I
0.627371 0.903027 0.983199 I
0.031962 0.803028 0.240281 Cs
0.462973 0.250842 0.739260 Cs
0.524041 0.794944 0.739891 Cs
-0.035354 0.251436 0.245371 Cs
