#=======================================================
# FHI-aims file: /mnt/lustre/a2fs-work2/work/e05/e05/prakaya/chalcogenide_perovskites/redo/ternary/Ba3Zr2S7_I4_mmm_light/relaxation/geometry.in.next_step
# Created using the Atomic Simulation Environment (ASE)
# Fri Mar 15 09:30:25 2024

# Additional information:
#  Relaxed with BFGS, fmax=1.000 meV/AA
#  nsteps = 23
#  residual force  = 0.005509 meV/AA
#  residual stress = 0.073645 meV/AA
#=======================================================
lattice_vector -2.4824044649279999 2.4824044649279999 12.7136838266940000 
lattice_vector 2.4824044649279999 -2.4824044649279999 12.7136838266940000 
lattice_vector 2.4824044649279999 2.4824044649279999 -12.7136838266940000 
atom_frac 0.0000000000000000 -0.0000000000000000 0.0000000000000000 Ba
atom_frac 0.1809398400910000 0.1809398400910000 0.0000000000000000 Ba
atom_frac 0.8190601599089999 0.8190601599090003 0.0000000000000000 Ba
atom_frac 0.5000000000000000 0.5000000000000000 0.0000000000000000 S
atom_frac 0.3012648493070000 0.3012648493070000 0.0000000000000000 S
atom_frac 0.6987351506929999 0.6987351506930001 -0.0000000000000000 S
atom_frac 0.9039534769760001 0.4039534769760001 0.5000000000000000 S
atom_frac 0.4039534769759998 0.9039534769760000 0.4999999999999999 S
atom_frac 0.0960465230240000 0.5960465230240001 0.5000000000000000 S
atom_frac 0.5960465230240000 0.0960465230240000 0.5000000000000000 S
atom_frac 0.3996661983059999 0.3996661983060000 0.0000000000000000 Zr
atom_frac 0.6003338016940000 0.6003338016940000 1.0000000000000000 Zr
