#=======================================================
# FHI-aims file: /mnt/lustre/a2fs-work2/work/e05/e05/prakaya/chalcogenide_perovskites/redo/ternary/Ba6Zr5S16_I4_mmm_vibes_relax/relaxation/geometry.in.next_step
# Created using the Atomic Simulation Environment (ASE)
# Sat Mar  9 18:05:25 2024

# Additional information:
#  Relaxed with BFGS, fmax=1.000 meV/AA
#  nsteps = 6
#  residual force  = 0.286621 meV/AA
#  residual stress = 0.602755 meV/AA
#=======================================================
lattice_vector 4.9783241253449999 0.0000000000000000 0.0000000000000000 
lattice_vector 0.0000000000000000 4.9783241253449999 0.0000000000000000 
lattice_vector 0.0000000000000000 -0.0000000000000000 55.2741480019959965 
atom_frac 0.5000000000000000 0.5000000000000000 0.2176642329760000 Ba
atom_frac 0.0000000000000000 0.0000000000000000 0.3675932786980000 Ba
atom_frac 0.5000000000000000 0.5000000000000000 0.0443471827070000 Ba
atom_frac 0.5000000000000000 0.5000000000000000 0.1324067213020000 Ba
atom_frac 0.0000000000000000 0.0000000000000000 0.4556528172930000 Ba
atom_frac 0.0000000000000000 0.0000000000000000 0.2823357670240000 Ba
atom_frac 0.0000000000000000 0.0000000000000000 0.7176642329760000 Ba
atom_frac 0.5000000000000000 0.5000000000000000 0.8675932786980000 Ba
atom_frac 0.0000000000000000 0.0000000000000000 0.5443471827070000 Ba
atom_frac 0.0000000000000000 0.0000000000000000 0.6324067213020002 Ba
atom_frac 0.5000000000000000 0.5000000000000000 0.9556528172930000 Ba
atom_frac 0.5000000000000000 0.5000000000000000 0.7823357670240001 Ba
atom_frac 0.5000000000000000 0.5000000000000000 0.4093408994360000 Zr
atom_frac 0.0000000000000000 0.0000000000000000 0.0000000000000000 Zr
atom_frac 0.5000000000000000 0.5000000000000000 0.3180326056630001 Zr
atom_frac 0.0000000000000000 0.0000000000000000 0.1819673943370000 Zr
atom_frac 0.0000000000000000 0.0000000000000000 0.0906591005640000 Zr
atom_frac 0.0000000000000000 0.0000000000000000 0.9093408994360002 Zr
atom_frac 0.5000000000000000 0.5000000000000000 0.5000000000000000 Zr
atom_frac 0.0000000000000000 0.0000000000000000 0.8180326056630000 Zr
atom_frac 0.5000000000000000 0.5000000000000000 0.6819673943370000 Zr
atom_frac 0.5000000000000000 0.5000000000000000 0.5906591005640000 Zr
atom_frac 0.5000000000000000 0.5000000000000000 0.2732181880760000 S
atom_frac 0.5000000000000000 0.5000000000000000 0.4548854535020000 S
atom_frac 0.5000000000000000 0.0000000000000000 0.1791681826250000 S
atom_frac 0.0000000000000000 0.5000000000000000 0.4101489566300001 S
atom_frac 0.5000000000000000 0.0000000000000000 0.4101489566300001 S
atom_frac 0.0000000000000000 0.5000000000000000 0.3208318173750000 S
atom_frac 0.0000000000000000 0.5000000000000000 0.1791681826250000 S
atom_frac 0.5000000000000000 0.0000000000000000 0.3208318173750000 S
atom_frac 0.5000000000000000 0.0000000000000000 0.0898510433700000 S
atom_frac 0.0000000000000000 0.0000000000000000 0.1353975654390000 S
atom_frac 0.5000000000000000 0.5000000000000000 0.3646024345610000 S
atom_frac 0.0000000000000000 0.0000000000000000 0.2267818119240000 S
atom_frac 0.0000000000000000 0.5000000000000000 0.0898510433700000 S
atom_frac 0.0000000000000000 0.5000000000000000 0.0000000000000000 S
atom_frac 0.0000000000000000 0.0000000000000000 0.0451145464980000 S
atom_frac 0.5000000000000000 0.0000000000000000 0.0000000000000000 S
atom_frac 0.0000000000000000 0.0000000000000000 0.7732181880760001 S
atom_frac 0.0000000000000000 0.0000000000000000 0.9548854535020000 S
atom_frac 0.0000000000000000 0.5000000000000000 0.6791681826250001 S
atom_frac 0.5000000000000000 0.0000000000000000 0.9101489566300000 S
atom_frac 0.0000000000000000 0.5000000000000000 0.9101489566300000 S
atom_frac 0.5000000000000000 0.0000000000000000 0.8208318173750000 S
atom_frac 0.5000000000000000 0.0000000000000000 0.6791681826250001 S
atom_frac 0.0000000000000000 0.5000000000000000 0.8208318173750000 S
atom_frac 0.0000000000000000 0.5000000000000000 0.5898510433700000 S
atom_frac 0.5000000000000000 0.5000000000000000 0.6353975654390001 S
atom_frac 0.0000000000000000 0.0000000000000000 0.8646024345610001 S
atom_frac 0.5000000000000000 0.5000000000000000 0.7267818119240000 S
atom_frac 0.5000000000000000 0.0000000000000000 0.5898510433700000 S
atom_frac 0.5000000000000000 0.0000000000000000 0.5000000000000000 S
atom_frac 0.5000000000000000 0.5000000000000000 0.5451145464980000 S
atom_frac 0.0000000000000000 0.5000000000000000 0.5000000000000000 S
