lattice_vector -2.5215000000000001 2.5215000000000001 12.9288001203000000
lattice_vector 2.5215000000000001 -2.5215000000000001 12.9288001203000000
lattice_vector 2.5215000000000001 2.5215000000000001 -12.9288001203000000
atom_frac 0.0000000000000000 -0.0000000000000000 0.0000000000000000 Ba
atom_frac 0.1807527800000000 0.1807527800000000 0.0000000000000000 Ba
atom_frac 0.8192472199999999 0.8192472200000002 0.0000000000000001 Ba
atom_frac 0.5000000000000000 0.5000000000000001 0.0000000000000001 S
atom_frac 0.3019281000000001 0.3019281000000001 0.0000000000000001 S
atom_frac 0.6980719000000000 0.6980719000000000 0.0000000000000001 S
atom_frac 0.9039090300000000 0.4039090300000003 0.5000000000000003 S
atom_frac 0.4039090300000001 0.9039090300000004 0.5000000000000004 S
atom_frac 0.0960909700000001 0.5960909700000001 0.5000000000000002 S
atom_frac 0.5960909700000002 0.0960909700000000 0.5000000000000001 S
atom_frac 0.3998108200000001 0.3998108200000001 0.0000000000000001 Zr
atom_frac 0.6001891800000003 0.6001891799999999 1.0000000000000000 Zr
