#=======================================================
# FHI-aims file: geometry-primitive.in
# Created using the Atomic Simulation Environment (ASE)
# Tue Mar 19 06:15:57 2024
#=======================================================
lattice_vector -2.5000000000000000 2.5000000000000000 43.0000000000000000 
lattice_vector 2.5000000000000000 -2.5000000000000000 43.0000000000000000 
lattice_vector 2.5000000000000000 2.5000000000000000 -43.0000000000000000 
atom_frac 0.7674418604651163 0.7674418604651163 0.0000000000000000 Ba
atom_frac 0.8255813953488373 0.8255813953488375 -0.0000000000000000 Ba
atom_frac 0.2965116279069768 0.2965116279069768 -0.0000000000000000 Zr
atom_frac 0.3546511627906978 0.3546511627906978 -0.0000000000000000 Zr
atom_frac 0.2674418604651163 0.2674418604651163 0.0000000000000000 S
atom_frac 0.3255813953488372 0.3255813953488373 -0.0000000000000000 S
atom_frac 0.7965116279069767 0.2965116279069768 0.5000000000000000 S
atom_frac 0.8546511627906979 0.3546511627906979 0.5000000000000000 S
atom_frac 0.2965116279069769 0.7965116279069768 0.5000000000000000 S
atom_frac 0.3546511627906979 0.8546511627906979 0.5000000000000000 S
atom_frac 0.8837209302325582 0.8837209302325582 0.0000000000000000 Ba
atom_frac 0.9418604651162789 0.9418604651162790 0.0000000000000000 Ba
atom_frac 0.4127906976744187 0.4127906976744187 -0.0000000000000000 Zr
atom_frac 0.4709302325581394 0.4709302325581395 0.0000000000000000 Zr
atom_frac 0.3837209302325582 0.3837209302325582 0.0000000000000000 S
atom_frac 0.4418604651162790 0.4418604651162790 -0.0000000000000000 S
atom_frac 0.9127906976744186 0.4127906976744187 0.5000000000000000 S
atom_frac 0.9709302325581395 0.4709302325581396 0.5000000000000000 S
atom_frac 0.4127906976744186 0.9127906976744188 0.5000000000000000 S
atom_frac 0.4709302325581394 0.9709302325581395 0.5000000000000000 S
atom_frac 0.0000000000000000 -0.0000000000000000 0.0000000000000000 Ba
atom_frac 0.0581395348837209 0.0581395348837209 0.0000000000000000 Ba
atom_frac 0.5290697674418605 0.5290697674418605 0.0000000000000000 Zr
atom_frac 0.5872093023255813 0.5872093023255813 0.0000000000000000 Zr
atom_frac 0.5000000000000000 0.5000000000000000 0.0000000000000000 S
atom_frac 0.5581395348837209 0.5581395348837209 -0.0000000000000000 S
atom_frac 0.0290697674418605 0.5290697674418605 0.5000000000000000 S
atom_frac 0.0872093023255813 0.5872093023255813 0.5000000000000000 S
atom_frac 0.5290697674418605 0.0290697674418605 0.5000000000000000 S
atom_frac 0.5872093023255813 0.0872093023255813 0.5000000000000000 S
atom_frac 0.1162790697674418 0.1162790697674418 0.0000000000000000 Ba
atom_frac 0.1744186046511628 0.1744186046511628 0.0000000000000000 Ba
atom_frac 0.6453488372093023 0.6453488372093023 0.0000000000000000 Zr
atom_frac 0.7034883720930233 0.7034883720930233 0.0000000000000000 Zr
atom_frac 0.6162790697674417 0.6162790697674420 -0.0000000000000000 S
atom_frac 0.6744186046511628 0.6744186046511628 0.0000000000000000 S
atom_frac 0.1453488372093023 0.6453488372093023 0.5000000000000000 S
atom_frac 0.2034883720930233 0.7034883720930233 0.5000000000000000 S
atom_frac 0.6453488372093023 0.1453488372093022 0.5000000000000000 S
atom_frac 0.7034883720930233 0.2034883720930233 0.5000000000000000 S
atom_frac 0.2325581395348837 0.2325581395348837 0.0000000000000000 Ba
atom_frac 0.7325581395348837 0.7325581395348837 0.0000000000000000 S
