#=======================================================
# FHI-aims file: ./geometry.in
# Created using the Atomic Simulation Environment (ASE)
# Thu Mar  7 07:59:25 2024
#=======================================================
lattice_vector 4.9765011302673896 -0.0000000000000000 0.0000000000000000 
lattice_vector -0.0000000000000000 4.9765011302673914 -0.0000000000000000 
lattice_vector -0.0000000000000000 -0.0000000000000009 45.3082106818803538 
atom_frac 0.5000000000000000 0.5000000000000001 0.2106138215019504 Ba
atom_frac 0.5000000000000000 0.5000000000000001 0.1068271163941980 Ba
atom_frac -0.0000000000000000 0.0000000000000001 0.2893861784980488 Ba
atom_frac 0.5000000000000000 0.5000000000000001 -0.0000000000000004 Ba
atom_frac 0.0000000000000000 0.0000000000000002 0.3931728836058012 Ba
atom_frac 0.0000000000000000 0.0000000000000002 0.7106138215019504 Ba
atom_frac 0.0000000000000000 0.0000000000000002 0.6068271163941982 Ba
atom_frac 0.5000000000000000 0.5000000000000002 0.7893861784980486 Ba
atom_frac -0.0000000000000000 0.0000000000000002 0.4999999999999996 Ba
atom_frac 0.5000000000000000 0.5000000000000002 0.8931728836058008 Ba
atom_frac 0.5000000000000000 0.5000000000000002 0.3330947079210273 Zr
atom_frac -0.0000000000000000 0.0000000000000001 0.0554219629314695 Zr
atom_frac 0.0000000000000000 0.0000000000000001 0.1669052920789720 Zr
atom_frac 0.5000000000000000 0.5000000000000002 0.4445780370685297 Zr
atom_frac 0.0000000000000000 0.0000000000000002 0.8330947079210274 Zr
atom_frac 0.5000000000000000 0.5000000000000002 0.5554219629314696 Zr
atom_frac 0.5000000000000000 0.5000000000000002 0.6669052920789716 Zr
atom_frac -0.0000000000000000 0.0000000000000003 0.9445780370685297 Zr
atom_frac 0.5000000000000000 0.5000000000000002 0.3898607433596212 S
atom_frac 0.5000000000000000 0.0000000000000001 0.3364231245668866 S
atom_frac 0.5000000000000000 0.0000000000000002 0.4453046868486307 S
atom_frac 0.5000000000000000 0.0000000000000001 0.0546953131513686 S
atom_frac 0.0000000000000000 0.0000000000000001 0.1101392566403781 S
atom_frac 0.5000000000000000 0.5000000000000002 0.2783707889549554 S
atom_frac 0.0000000000000000 0.0000000000000001 0.2216292110450438 S
atom_frac 0.0000000000000000 0.5000000000000002 0.3364231245668866 S
atom_frac 0.5000000000000000 0.0000000000000001 0.1635768754331127 S
atom_frac 0.0000000000000000 0.5000000000000002 0.4453046868486307 S
atom_frac 0.0000000000000000 0.5000000000000001 0.1635768754331127 S
atom_frac -0.0000000000000000 0.0000000000000001 -0.0000000000000004 S
atom_frac -0.0000000000000000 0.5000000000000001 0.0546953131513686 S
atom_frac -0.0000000000000000 0.0000000000000002 0.8898607433596207 S
atom_frac 0.0000000000000000 0.5000000000000002 0.8364231245668865 S
atom_frac -0.0000000000000000 0.5000000000000002 0.9453046868486307 S
atom_frac -0.0000000000000000 0.5000000000000002 0.5546953131513684 S
atom_frac 0.5000000000000000 0.5000000000000002 0.6101392566403780 S
atom_frac -0.0000000000000000 0.0000000000000002 0.7783707889549552 S
atom_frac 0.5000000000000000 0.5000000000000002 0.7216292110450437 S
atom_frac 0.5000000000000000 0.0000000000000002 0.8364231245668865 S
atom_frac 0.0000000000000000 0.5000000000000002 0.6635768754331127 S
atom_frac 0.5000000000000000 0.0000000000000003 0.9453046868486307 S
atom_frac 0.5000000000000000 0.0000000000000002 0.6635768754331127 S
atom_frac 0.5000000000000000 0.5000000000000002 0.4999999999999996 S
atom_frac 0.5000000000000000 0.0000000000000002 0.5546953131513684 S
