#=======================================================
# FHI-aims file: ./geometry.in
# Created using the Atomic Simulation Environment (ASE)
# Sat Mar  9 18:03:38 2024
#=======================================================
lattice_vector 4.9783241253449964 0.0000000000000000 0.0000000000000000 
lattice_vector 0.0000000000000000 4.9783241253449981 0.0000000000000000 
lattice_vector 0.0000000000000000 -0.0000000000000009 55.2741480019961386 
atom_frac 0.5000000000000001 0.5000000000000001 0.2176642329757697 Ba
atom_frac 0.0000000000000000 0.0000000000000002 0.3675932786984416 Ba
atom_frac 0.5000000000000001 0.5000000000000001 0.0443471827070826 Ba
atom_frac 0.5000000000000001 0.5000000000000001 0.1324067213015583 Ba
atom_frac -0.0000000000000000 0.0000000000000002 0.4556528172929173 Ba
atom_frac -0.0000000000000000 0.0000000000000001 0.2823357670242302 Ba
atom_frac -0.0000000000000000 0.0000000000000002 0.7176642329757698 Ba
atom_frac 0.5000000000000001 0.5000000000000002 0.8675932786984415 Ba
atom_frac -0.0000000000000000 0.0000000000000002 0.5443471827070826 Ba
atom_frac -0.0000000000000000 0.0000000000000002 0.6324067213015582 Ba
atom_frac 0.5000000000000001 0.5000000000000002 0.9556528172929171 Ba
atom_frac 0.5000000000000001 0.5000000000000002 0.7823357670242301 Ba
atom_frac 0.5000000000000001 0.5000000000000002 0.4093408994356008 Zr
atom_frac 0.0000000000000000 0.0000000000000001 -0.0000000000000001 Zr
atom_frac 0.5000000000000001 0.5000000000000002 0.3180326056630310 Zr
atom_frac -0.0000000000000000 0.0000000000000001 0.1819673943369687 Zr
atom_frac -0.0000000000000000 0.0000000000000001 0.0906591005643990 Zr
atom_frac 0.0000000000000000 0.0000000000000003 0.9093408994356008 Zr
atom_frac 0.5000000000000001 0.5000000000000002 0.4999999999999998 Zr
atom_frac -0.0000000000000000 0.0000000000000002 0.8180326056630312 Zr
atom_frac 0.5000000000000001 0.5000000000000002 0.6819673943369684 Zr
atom_frac 0.5000000000000001 0.5000000000000002 0.5906591005643986 Zr
atom_frac 0.5000000000000001 0.5000000000000002 0.2732181880761386 S
atom_frac 0.5000000000000001 0.5000000000000002 0.4548854535022637 S
atom_frac 0.5000000000000001 0.0000000000000001 0.1791681826247898 S
atom_frac -0.0000000000000000 0.5000000000000002 0.4101489566296241 S
atom_frac 0.5000000000000001 0.0000000000000002 0.4101489566296241 S
atom_frac 0.0000000000000000 0.5000000000000002 0.3208318173752102 S
atom_frac -0.0000000000000000 0.5000000000000001 0.1791681826247898 S
atom_frac 0.5000000000000001 0.0000000000000001 0.3208318173752102 S
atom_frac 0.5000000000000001 0.0000000000000001 0.0898510433703755 S
atom_frac 0.0000000000000000 0.0000000000000001 0.1353975654388694 S
atom_frac 0.5000000000000001 0.5000000000000002 0.3646024345611306 S
atom_frac -0.0000000000000000 0.0000000000000001 0.2267818119238612 S
atom_frac -0.0000000000000000 0.5000000000000001 0.0898510433703754 S
atom_frac -0.0000000000000000 0.5000000000000001 -0.0000000000000001 S
atom_frac 0.0000000000000000 0.0000000000000001 0.0451145464977361 S
atom_frac 0.5000000000000001 0.0000000000000001 -0.0000000000000001 S
atom_frac 0.0000000000000000 0.0000000000000002 0.7732181880761385 S
atom_frac 0.0000000000000000 0.0000000000000003 0.9548854535022636 S
atom_frac 0.0000000000000000 0.5000000000000002 0.6791681826247897 S
atom_frac 0.5000000000000001 0.0000000000000003 0.9101489566296244 S
atom_frac 0.0000000000000000 0.5000000000000002 0.9101489566296244 S
atom_frac 0.5000000000000001 0.0000000000000002 0.8208318173752100 S
atom_frac 0.5000000000000001 0.0000000000000002 0.6791681826247897 S
atom_frac 0.0000000000000000 0.5000000000000002 0.8208318173752100 S
atom_frac -0.0000000000000000 0.5000000000000002 0.5898510433703754 S
atom_frac 0.5000000000000001 0.5000000000000002 0.6353975654388694 S
atom_frac -0.0000000000000000 0.0000000000000002 0.8646024345611303 S
atom_frac 0.5000000000000001 0.5000000000000002 0.7267818119238612 S
atom_frac 0.5000000000000001 0.0000000000000002 0.5898510433703754 S
atom_frac 0.5000000000000001 0.0000000000000002 0.4999999999999998 S
atom_frac 0.5000000000000001 0.5000000000000002 0.5451145464977359 S
atom_frac -0.0000000000000000 0.5000000000000002 0.4999999999999998 S
