#=======================================================
# FHI-aims file: ./geometry.in
# Created using the Atomic Simulation Environment (ASE)
# Fri Mar 15 09:46:44 2024
#=======================================================
lattice_vector -2.4865468225722220 2.4865468225722234 17.6756236629733152 
lattice_vector 2.4865468225722318 -2.4865468225722229 17.6756236629733188 
lattice_vector 2.4865468225722198 2.4865468225722265 -17.6756236629733152 
atom_frac 0.4324961017117517 0.4324961017117520 0.0000000000000000 Ba
atom_frac 0.5675038982882488 0.5675038982882489 -0.0000000000000000 Ba
atom_frac 0.3002686288744265 0.3002686288744266 0.0000000000000000 Ba
atom_frac 0.6997313711255743 0.6997313711255744 -0.0000000000000000 Ba
atom_frac 0.5000000000000001 0.0000000000000003 0.4999999999999998 S
atom_frac 1.0000000000000004 0.5000000000000006 0.4999999999999999 S
atom_frac 0.9293902264226963 0.9293902264226965 0.0000000000000000 S
atom_frac 0.0706097735773038 0.0706097735773040 0.0000000000000000 S
atom_frac 0.7864979461987435 0.7864979461987435 0.0000000000000000 S
atom_frac 0.2135020538012569 0.2135020538012571 -0.0000000000000000 S
atom_frac 0.8607648381186643 0.3607648381186644 0.4999999999999998 S
atom_frac 0.3607648381186641 0.8607648381186642 0.4999999999999997 S
atom_frac 0.1392351618813362 0.6392351618813363 0.4999999999999997 S
atom_frac 0.6392351618813364 0.1392351618813367 0.4999999999999998 S
atom_frac -0.0000000000000001 0.0000000000000001 -0.0000000000000000 Zr
atom_frac 0.8567995472420675 0.8567995472420677 -0.0000000000000000 Zr
atom_frac 0.1432004527579329 0.1432004527579331 0.0000000000000000 Zr
