#=======================================================
# FHI-aims file: ./geometry.in
# Created using the Atomic Simulation Environment (ASE)
# Fri Mar 15 13:43:53 2024
#=======================================================
lattice_vector 5.0000000000000000 0.0000000000000000 0.0000000000000000 
lattice_vector 0.0000000000000000 5.0000000000000000 0.0000000000000000 
lattice_vector 0.0000000000000000 0.0000000000000000 105.0000000000000000 
atom_frac 0.5000000000000000 0.5000000000000000 0.0238100000000000 Ba
atom_frac 0.0000000000000000 0.0000000000000000 -0.0000000000000001 Zr
atom_frac 0.5000000000000000 0.0000000000000000 -0.0000000000000001 S
atom_frac 0.0000000000000000 0.0000000000000000 0.0238100000000000 S
atom_frac 0.0000000000000000 0.5000000000000000 -0.0000000000000001 S
atom_frac 0.5000000000000000 0.5000000000000000 0.0714299999999999 Ba
atom_frac 0.0000000000000000 0.0000000000000000 0.0476199999999999 Zr
atom_frac 0.5000000000000000 0.0000000000000000 0.0476199999999999 S
atom_frac 0.0000000000000000 0.0000000000000000 0.0714299999999999 S
atom_frac 0.0000000000000000 0.5000000000000000 0.0476199999999999 S
atom_frac 0.5000000000000000 0.5000000000000000 0.1190499999999999 Ba
atom_frac 0.0000000000000000 0.0000000000000000 0.0952400000000001 Zr
atom_frac 0.5000000000000000 0.0000000000000000 0.0952400000000001 S
atom_frac 0.0000000000000000 0.0000000000000000 0.1190499999999999 S
atom_frac 0.0000000000000000 0.5000000000000000 0.0952400000000001 S
atom_frac 0.5000000000000000 0.5000000000000000 0.1666699999999998 Ba
atom_frac 0.0000000000000000 0.0000000000000000 0.1428600000000000 Zr
atom_frac 0.5000000000000000 0.0000000000000000 0.1428600000000000 S
atom_frac 0.0000000000000000 0.0000000000000000 0.1666699999999998 S
atom_frac 0.0000000000000000 0.5000000000000000 0.1428600000000000 S
atom_frac 0.5000000000000000 0.5000000000000000 0.2142900000000001 Ba
atom_frac 0.0000000000000000 0.0000000000000000 0.1904800000000001 Zr
atom_frac 0.5000000000000000 0.0000000000000000 0.1904800000000001 S
atom_frac 0.0000000000000000 0.0000000000000000 0.2142900000000001 S
atom_frac 0.0000000000000000 0.5000000000000000 0.1904800000000001 S
atom_frac 0.5000000000000000 0.5000000000000000 0.2619000000000000 Ba
atom_frac 0.0000000000000000 0.0000000000000000 0.2380999999999999 Zr
atom_frac 0.5000000000000000 0.0000000000000000 0.2380999999999999 S
atom_frac 0.0000000000000000 0.0000000000000000 0.2619000000000000 S
atom_frac 0.0000000000000000 0.5000000000000000 0.2380999999999999 S
atom_frac 0.5000000000000000 0.5000000000000000 0.3095200000000002 Ba
atom_frac 0.0000000000000000 0.0000000000000000 0.2857100000000000 Zr
atom_frac 0.5000000000000000 0.0000000000000000 0.2857100000000000 S
atom_frac 0.0000000000000000 0.0000000000000000 0.3095200000000002 S
atom_frac 0.0000000000000000 0.5000000000000000 0.2857100000000000 S
atom_frac 0.5000000000000000 0.5000000000000000 0.3571400000000001 Ba
atom_frac 0.0000000000000000 0.0000000000000000 0.3333300000000002 Zr
atom_frac 0.5000000000000000 0.0000000000000000 0.3333300000000002 S
atom_frac 0.0000000000000000 0.0000000000000000 0.3571400000000001 S
atom_frac 0.0000000000000000 0.5000000000000000 0.3333300000000002 S
atom_frac 0.5000000000000000 0.5000000000000000 0.4047600000000001 Ba
atom_frac 0.0000000000000000 0.0000000000000000 0.3809500000000000 Zr
atom_frac 0.5000000000000000 0.0000000000000000 0.3809500000000000 S
atom_frac 0.0000000000000000 0.0000000000000000 0.4047600000000001 S
atom_frac 0.0000000000000000 0.5000000000000000 0.3809500000000000 S
atom_frac 0.5000000000000000 0.5000000000000000 0.4523800000000000 Ba
atom_frac 0.0000000000000000 0.0000000000000000 0.4285700000000001 Zr
atom_frac 0.5000000000000000 0.0000000000000000 0.4285700000000001 S
atom_frac 0.0000000000000000 0.0000000000000000 0.4523800000000000 S
atom_frac 0.0000000000000000 0.5000000000000000 0.4285700000000001 S
atom_frac 0.0000000000000000 0.0000000000000000 0.4761900000000002 Ba
atom_frac 0.5000000000000000 0.5000000000000000 0.4761900000000002 S
atom_frac 0.0000000000000000 0.0000000000000000 0.5238100000000001 Ba
atom_frac 0.5000000000000000 0.5000000000000000 0.5000000000000000 Zr
atom_frac 0.0000000000000000 0.5000000000000000 0.5000000000000000 S
atom_frac 0.5000000000000000 0.5000000000000000 0.5238100000000001 S
atom_frac 0.5000000000000000 0.0000000000000000 0.5000000000000000 S
atom_frac 0.0000000000000000 0.0000000000000000 0.5714300000000000 Ba
atom_frac 0.5000000000000000 0.5000000000000000 0.5476200000000000 Zr
atom_frac 0.0000000000000000 0.5000000000000000 0.5476200000000000 S
atom_frac 0.5000000000000000 0.5000000000000000 0.5714300000000000 S
atom_frac 0.5000000000000000 0.0000000000000000 0.5476200000000000 S
atom_frac 0.0000000000000000 0.0000000000000000 0.6190500000000000 Ba
atom_frac 0.5000000000000000 0.5000000000000000 0.5952400000000001 Zr
atom_frac 0.0000000000000000 0.5000000000000000 0.5952400000000001 S
atom_frac 0.5000000000000000 0.5000000000000000 0.6190500000000000 S
atom_frac 0.5000000000000000 0.0000000000000000 0.5952400000000001 S
atom_frac 0.0000000000000000 0.0000000000000000 0.6666699999999999 Ba
atom_frac 0.5000000000000000 0.5000000000000000 0.6428600000000000 Zr
atom_frac 0.0000000000000000 0.5000000000000000 0.6428600000000000 S
atom_frac 0.5000000000000000 0.5000000000000000 0.6666699999999999 S
atom_frac 0.5000000000000000 0.0000000000000000 0.6428600000000000 S
atom_frac 0.0000000000000000 0.0000000000000000 0.7142900000000001 Ba
atom_frac 0.5000000000000000 0.5000000000000000 0.6904800000000002 Zr
atom_frac 0.0000000000000000 0.5000000000000000 0.6904800000000002 S
atom_frac 0.5000000000000000 0.5000000000000000 0.7142900000000001 S
atom_frac 0.5000000000000000 0.0000000000000000 0.6904800000000002 S
atom_frac 0.0000000000000000 0.0000000000000000 0.7619000000000000 Ba
atom_frac 0.5000000000000000 0.5000000000000000 0.7381000000000000 Zr
atom_frac 0.0000000000000000 0.5000000000000000 0.7381000000000000 S
atom_frac 0.5000000000000000 0.5000000000000000 0.7619000000000000 S
atom_frac 0.5000000000000000 0.0000000000000000 0.7381000000000000 S
atom_frac 0.0000000000000000 0.0000000000000000 0.8095200000000002 Ba
atom_frac 0.5000000000000000 0.5000000000000000 0.7857100000000000 Zr
atom_frac 0.0000000000000000 0.5000000000000000 0.7857100000000000 S
atom_frac 0.5000000000000000 0.5000000000000000 0.8095200000000002 S
atom_frac 0.5000000000000000 0.0000000000000000 0.7857100000000000 S
atom_frac 0.0000000000000000 0.0000000000000000 0.8571400000000002 Ba
atom_frac 0.5000000000000000 0.5000000000000000 0.8333300000000002 Zr
atom_frac 0.0000000000000000 0.5000000000000000 0.8333300000000002 S
atom_frac 0.5000000000000000 0.5000000000000000 0.8571400000000002 S
atom_frac 0.5000000000000000 0.0000000000000000 0.8333300000000002 S
atom_frac 0.0000000000000000 0.0000000000000000 0.9047600000000001 Ba
atom_frac 0.5000000000000000 0.5000000000000000 0.8809500000000001 Zr
atom_frac 0.0000000000000000 0.5000000000000000 0.8809500000000001 S
atom_frac 0.5000000000000000 0.5000000000000000 0.9047600000000001 S
atom_frac 0.5000000000000000 0.0000000000000000 0.8809500000000001 S
atom_frac 0.0000000000000000 0.0000000000000000 0.9523800000000000 Ba
atom_frac 0.5000000000000000 0.5000000000000000 0.9285700000000001 Zr
atom_frac 0.0000000000000000 0.5000000000000000 0.9285700000000001 S
atom_frac 0.5000000000000000 0.5000000000000000 0.9523800000000000 S
atom_frac 0.5000000000000000 0.0000000000000000 0.9285700000000001 S
atom_frac 0.5000000000000000 0.5000000000000000 0.9761900000000002 Ba
atom_frac 0.0000000000000000 0.0000000000000000 0.9761900000000002 S
