#=======================================================
# FHI-aims file: /mnt/lustre/a2fs-work2/work/e05/e05/prakaya/chalcogenide_perovskites/redo/ternary/Ba11Zr10S31_I4_mmm_light/relaxation/geometry.in.next_step
# Created using the Atomic Simulation Environment (ASE)
# Fri Mar 15 13:58:09 2024

# Additional information:
#  Relaxed with BFGS, fmax=1.000 meV/AA
#  nsteps = 0
#  residual force  = 5206.672097 meV/AA
#  residual stress = 35363.448750 meV/AA
#=======================================================
lattice_vector 5.0000000000000000 0.0000000000000000 0.0000000000000000 
lattice_vector 0.0000000000000000 5.0000000000000000 0.0000000000000000 
lattice_vector 0.0000000000000000 0.0000000000000000 105.0000000000000000 
atom_frac 0.5000000000000000 0.5000000000000000 0.0238100000000000 Ba
atom_frac 0.0000000000000000 0.0000000000000000 0.0000000000000000 Zr
atom_frac 0.5000000000000000 0.0000000000000000 0.0000000000000000 S
atom_frac 0.0000000000000000 0.0000000000000000 0.0238100000000000 S
atom_frac 0.0000000000000000 0.5000000000000000 0.0000000000000000 S
atom_frac 0.5000000000000000 0.5000000000000000 0.0714300000000000 Ba
atom_frac 0.0000000000000000 0.0000000000000000 0.0476200000000000 Zr
atom_frac 0.5000000000000000 0.0000000000000000 0.0476200000000000 S
atom_frac 0.0000000000000000 0.0000000000000000 0.0714300000000000 S
atom_frac 0.0000000000000000 0.5000000000000000 0.0476200000000000 S
atom_frac 0.5000000000000000 0.5000000000000000 0.1190500000000000 Ba
atom_frac 0.0000000000000000 0.0000000000000000 0.0952400000000000 Zr
atom_frac 0.5000000000000000 0.0000000000000000 0.0952400000000000 S
atom_frac 0.0000000000000000 0.0000000000000000 0.1190500000000000 S
atom_frac 0.0000000000000000 0.5000000000000000 0.0952400000000000 S
atom_frac 0.5000000000000000 0.5000000000000000 0.1666700000000000 Ba
atom_frac 0.0000000000000000 0.0000000000000000 0.1428600000000000 Zr
atom_frac 0.5000000000000000 0.0000000000000000 0.1428600000000000 S
atom_frac 0.0000000000000000 0.0000000000000000 0.1666700000000000 S
atom_frac 0.0000000000000000 0.5000000000000000 0.1428600000000000 S
atom_frac 0.5000000000000000 0.5000000000000000 0.2142900000000000 Ba
atom_frac 0.0000000000000000 0.0000000000000000 0.1904800000000000 Zr
atom_frac 0.5000000000000000 0.0000000000000000 0.1904800000000000 S
atom_frac 0.0000000000000000 0.0000000000000000 0.2142900000000000 S
atom_frac 0.0000000000000000 0.5000000000000000 0.1904800000000000 S
atom_frac 0.5000000000000000 0.5000000000000000 0.2619000000000000 Ba
atom_frac 0.0000000000000000 0.0000000000000000 0.2381000000000000 Zr
atom_frac 0.5000000000000000 0.0000000000000000 0.2381000000000000 S
atom_frac 0.0000000000000000 0.0000000000000000 0.2619000000000000 S
atom_frac 0.0000000000000000 0.5000000000000000 0.2381000000000000 S
atom_frac 0.5000000000000000 0.5000000000000000 0.3095200000000000 Ba
atom_frac 0.0000000000000000 0.0000000000000000 0.2857100000000001 Zr
atom_frac 0.5000000000000000 0.0000000000000000 0.2857100000000001 S
atom_frac 0.0000000000000000 0.0000000000000000 0.3095200000000000 S
atom_frac 0.0000000000000000 0.5000000000000000 0.2857100000000001 S
atom_frac 0.5000000000000000 0.5000000000000000 0.3571400000000001 Ba
atom_frac 0.0000000000000000 0.0000000000000000 0.3333300000000001 Zr
atom_frac 0.5000000000000000 0.0000000000000000 0.3333300000000001 S
atom_frac 0.0000000000000000 0.0000000000000000 0.3571400000000001 S
atom_frac 0.0000000000000000 0.5000000000000000 0.3333300000000001 S
atom_frac 0.5000000000000000 0.5000000000000000 0.4047600000000001 Ba
atom_frac 0.0000000000000000 0.0000000000000000 0.3809500000000000 Zr
atom_frac 0.5000000000000000 0.0000000000000000 0.3809500000000000 S
atom_frac 0.0000000000000000 0.0000000000000000 0.4047600000000001 S
atom_frac 0.0000000000000000 0.5000000000000000 0.3809500000000000 S
atom_frac 0.5000000000000000 0.5000000000000000 0.4523800000000001 Ba
atom_frac 0.0000000000000000 0.0000000000000000 0.4285700000000001 Zr
atom_frac 0.5000000000000000 0.0000000000000000 0.4285700000000001 S
atom_frac 0.0000000000000000 0.0000000000000000 0.4523800000000001 S
atom_frac 0.0000000000000000 0.5000000000000000 0.4285700000000001 S
atom_frac 0.0000000000000000 0.0000000000000000 0.4761900000000000 Ba
atom_frac 0.5000000000000000 0.5000000000000000 0.4761900000000000 S
atom_frac 0.0000000000000000 0.0000000000000000 0.5238100000000001 Ba
atom_frac 0.5000000000000000 0.5000000000000000 0.5000000000000000 Zr
atom_frac 0.0000000000000000 0.5000000000000000 0.5000000000000000 S
atom_frac 0.5000000000000000 0.5000000000000000 0.5238100000000001 S
atom_frac 0.5000000000000000 0.0000000000000000 0.5000000000000000 S
atom_frac 0.0000000000000000 0.0000000000000000 0.5714300000000000 Ba
atom_frac 0.5000000000000000 0.5000000000000000 0.5476200000000000 Zr
atom_frac 0.0000000000000000 0.5000000000000000 0.5476200000000000 S
atom_frac 0.5000000000000000 0.5000000000000000 0.5714300000000000 S
atom_frac 0.5000000000000000 0.0000000000000000 0.5476200000000000 S
atom_frac 0.0000000000000000 0.0000000000000000 0.6190500000000000 Ba
atom_frac 0.5000000000000000 0.5000000000000000 0.5952400000000001 Zr
atom_frac 0.0000000000000000 0.5000000000000000 0.5952400000000001 S
atom_frac 0.5000000000000000 0.5000000000000000 0.6190500000000000 S
atom_frac 0.5000000000000000 0.0000000000000000 0.5952400000000001 S
atom_frac 0.0000000000000000 0.0000000000000000 0.6666700000000000 Ba
atom_frac 0.5000000000000000 0.5000000000000000 0.6428600000000000 Zr
atom_frac 0.0000000000000000 0.5000000000000000 0.6428600000000000 S
atom_frac 0.5000000000000000 0.5000000000000000 0.6666700000000000 S
atom_frac 0.5000000000000000 0.0000000000000000 0.6428600000000000 S
atom_frac 0.0000000000000000 0.0000000000000000 0.7142900000000001 Ba
atom_frac 0.5000000000000000 0.5000000000000000 0.6904800000000001 Zr
atom_frac 0.0000000000000000 0.5000000000000000 0.6904800000000001 S
atom_frac 0.5000000000000000 0.5000000000000000 0.7142900000000001 S
atom_frac 0.5000000000000000 0.0000000000000000 0.6904800000000001 S
atom_frac 0.0000000000000000 0.0000000000000000 0.7619000000000000 Ba
atom_frac 0.5000000000000000 0.5000000000000000 0.7381000000000001 Zr
atom_frac 0.0000000000000000 0.5000000000000000 0.7381000000000001 S
atom_frac 0.5000000000000000 0.5000000000000000 0.7619000000000000 S
atom_frac 0.5000000000000000 0.0000000000000000 0.7381000000000001 S
atom_frac 0.0000000000000000 0.0000000000000000 0.8095200000000001 Ba
atom_frac 0.5000000000000000 0.5000000000000000 0.7857100000000000 Zr
atom_frac 0.0000000000000000 0.5000000000000000 0.7857100000000000 S
atom_frac 0.5000000000000000 0.5000000000000000 0.8095200000000001 S
atom_frac 0.5000000000000000 0.0000000000000000 0.7857100000000000 S
atom_frac 0.0000000000000000 0.0000000000000000 0.8571400000000001 Ba
atom_frac 0.5000000000000000 0.5000000000000000 0.8333300000000001 Zr
atom_frac 0.0000000000000000 0.5000000000000000 0.8333300000000001 S
atom_frac 0.5000000000000000 0.5000000000000000 0.8571400000000001 S
atom_frac 0.5000000000000000 0.0000000000000000 0.8333300000000001 S
atom_frac 0.0000000000000000 0.0000000000000000 0.9047600000000001 Ba
atom_frac 0.5000000000000000 0.5000000000000000 0.8809500000000001 Zr
atom_frac 0.0000000000000000 0.5000000000000000 0.8809500000000001 S
atom_frac 0.5000000000000000 0.5000000000000000 0.9047600000000001 S
atom_frac 0.5000000000000000 0.0000000000000000 0.8809500000000001 S
atom_frac 0.0000000000000000 0.0000000000000000 0.9523800000000000 Ba
atom_frac 0.5000000000000000 0.5000000000000000 0.9285700000000000 Zr
atom_frac 0.0000000000000000 0.5000000000000000 0.9285700000000000 S
atom_frac 0.5000000000000000 0.5000000000000000 0.9523800000000000 S
atom_frac 0.5000000000000000 0.0000000000000000 0.9285700000000000 S
atom_frac 0.5000000000000000 0.5000000000000000 0.9761900000000001 Ba
atom_frac 0.0000000000000000 0.0000000000000000 0.9761900000000001 S
