#=======================================================
# FHI-aims file: geometry.in
# Created using the Atomic Simulation Environment (ASE)
# Mon Feb 26 20:33:42 2024
#=======================================================
lattice_vector 7.0671476300000000 0.0000000000000000 0.0000000000000000
lattice_vector 0.0000000000000000 9.9063456500000004 0.0000000000000000
lattice_vector 0.0000000000000000 0.0000000000000000 6.9222470400000002
atom_frac 0.9462531505090407 0.2499999997476365 0.5120108701003540 Ba
atom_frac 0.5537468501984584 0.7500000002523635 0.0120108701003540 Ba
atom_frac 0.0537468494909593 0.7500000002523635 0.4879891298996460 Ba
atom_frac 0.4462531498015416 0.2499999997476365 0.9879891298996460 Ba
atom_frac 0.0056248704684269 0.2499999997476365 0.0653654698229320 S
atom_frac 0.4943751302390721 0.7500000002523635 -0.4346345301770680 S
atom_frac 0.9943751295315730 0.7500000002523635 0.9346345301770681 S
atom_frac 0.5056248697609278 0.2499999997476365 0.4346345301770680 S
atom_frac 0.2080504097237884 0.0343102897888486 0.7075753106898652 S
atom_frac 0.2919495895687126 0.9656897102111514 0.2075753106898653 S
atom_frac 0.7919495902762116 0.5343102902935756 0.2924246893101348 S
atom_frac 0.7080504104312874 0.4656897097064244 0.7924246893101348 S
atom_frac 0.7919495902762116 0.9656897102111514 0.2924246893101348 S
atom_frac 0.7080504104312874 0.0343102897888486 0.7924246893101348 S
atom_frac 0.2080504097237884 0.4656897097064244 0.7075753106898652 S
atom_frac 0.2919495895687126 0.5343102902935756 0.2075753106898653 S
atom_frac 0.0000000000000000 0.0000000000000000 0.0000000000000000 Zr
atom_frac 0.5000000007074989 0.0000000000000000 0.5000000000000000 Zr
atom_frac 0.0000000000000000 0.5000000005047269 0.0000000000000000 Zr
atom_frac 0.5000000007074989 0.5000000005047269 0.5000000000000000 Zr
