#=======================================================
# FHI-aims file: /mnt/lustre/a2fs-work2/work/e05/e05/prakaya/chalcogenide_perovskites/redo/ternary/Ba5Zr4S13_I4_mmm_vibes_relax/relaxation/geometry.in.next_step
# Created using the Atomic Simulation Environment (ASE)
# Thu Mar  7 08:00:33 2024

# Additional information:
#  Relaxed with BFGS, fmax=1.000 meV/AA
#  nsteps = 10
#  residual force  = 0.851763 meV/AA
#  residual stress = 0.785458 meV/AA
#=======================================================
lattice_vector 4.9765011302669997 -0.0000000000000000 0.0000000000000000 
lattice_vector -0.0000000000000000 4.9765011302669997 -0.0000000000000000 
lattice_vector -0.0000000000000000 -0.0000000000000000 45.3082106818799986 
atom_frac 0.5000000000000000 0.5000000000000000 0.2106138215020000 Ba
atom_frac 0.5000000000000000 0.5000000000000000 0.1068271163940000 Ba
atom_frac 0.0000000000000000 0.0000000000000000 0.2893861784980001 Ba
atom_frac 0.5000000000000000 0.5000000000000000 0.0000000000000000 Ba
atom_frac 0.0000000000000000 0.0000000000000000 0.3931728836060001 Ba
atom_frac 0.0000000000000000 0.0000000000000000 0.7106138215020000 Ba
atom_frac 0.0000000000000000 0.0000000000000000 0.6068271163940000 Ba
atom_frac 0.5000000000000000 0.5000000000000000 0.7893861784980001 Ba
atom_frac 0.0000000000000000 0.0000000000000000 0.5000000000000000 Ba
atom_frac 0.5000000000000000 0.5000000000000000 0.8931728836060001 Ba
atom_frac 0.5000000000000000 0.5000000000000000 0.3330947079210000 Zr
atom_frac 0.0000000000000000 0.0000000000000000 0.0554219629310000 Zr
atom_frac 0.0000000000000000 0.0000000000000000 0.1669052920790000 Zr
atom_frac 0.5000000000000000 0.5000000000000000 0.4445780370690000 Zr
atom_frac 0.0000000000000000 0.0000000000000000 0.8330947079210002 Zr
atom_frac 0.5000000000000000 0.5000000000000000 0.5554219629310000 Zr
atom_frac 0.5000000000000000 0.5000000000000000 0.6669052920790001 Zr
atom_frac 0.0000000000000000 0.0000000000000000 0.9445780370690001 Zr
atom_frac 0.5000000000000000 0.5000000000000000 0.3898607433600000 S
atom_frac 0.5000000000000000 0.0000000000000000 0.3364231245670001 S
atom_frac 0.5000000000000000 0.0000000000000000 0.4453046868490000 S
atom_frac 0.5000000000000000 0.0000000000000000 0.0546953131510000 S
atom_frac 0.0000000000000000 0.0000000000000000 0.1101392566400000 S
atom_frac 0.5000000000000000 0.5000000000000000 0.2783707889550000 S
atom_frac 0.0000000000000000 0.0000000000000000 0.2216292110450000 S
atom_frac 0.0000000000000000 0.5000000000000000 0.3364231245670001 S
atom_frac 0.5000000000000000 0.0000000000000000 0.1635768754330000 S
atom_frac 0.0000000000000000 0.5000000000000000 0.4453046868490000 S
atom_frac 0.0000000000000000 0.5000000000000000 0.1635768754330000 S
atom_frac 0.0000000000000000 0.0000000000000000 0.0000000000000000 S
atom_frac 0.0000000000000000 0.5000000000000000 0.0546953131510000 S
atom_frac 0.0000000000000000 0.0000000000000000 0.8898607433600001 S
atom_frac 0.0000000000000000 0.5000000000000000 0.8364231245670001 S
atom_frac 0.0000000000000000 0.5000000000000000 0.9453046868490000 S
atom_frac 0.0000000000000000 0.5000000000000000 0.5546953131510000 S
atom_frac 0.5000000000000000 0.5000000000000000 0.6101392566400000 S
atom_frac 0.0000000000000000 0.0000000000000000 0.7783707889550000 S
atom_frac 0.5000000000000000 0.5000000000000000 0.7216292110450000 S
atom_frac 0.5000000000000000 0.0000000000000000 0.8364231245670001 S
atom_frac 0.0000000000000000 0.5000000000000000 0.6635768754330000 S
atom_frac 0.5000000000000000 0.0000000000000000 0.9453046868490000 S
atom_frac 0.5000000000000000 0.0000000000000000 0.6635768754330000 S
atom_frac 0.5000000000000000 0.5000000000000000 0.5000000000000000 S
atom_frac 0.5000000000000000 0.0000000000000000 0.5546953131510000 S
