#=======================================================
# FHI-aims file: /mnt/lustre/a2fs-work2/work/e05/e05/prakaya/chalcogenide_perovskites/redo/ternary/Ba4Zr3S10_I4_mmm_light/relaxation/geometry.in.next_step
# Created using the Atomic Simulation Environment (ASE)
# Fri Mar 15 09:47:21 2024

# Additional information:
#  Relaxed with BFGS, fmax=1.000 meV/AA
#  nsteps = 25
#  residual force  = 0.079826 meV/AA
#  residual stress = 0.660093 meV/AA
#=======================================================
lattice_vector -2.4865468225720000 2.4865468225720000 17.6756236629729990 
lattice_vector 2.4865468225720000 -2.4865468225720000 17.6756236629729990 
lattice_vector 2.4865468225720000 2.4865468225720000 -17.6756236629729990 
atom_frac 0.4324961017120000 0.4324961017120000 -0.0000000000000000 Ba
atom_frac 0.5675038982880000 0.5675038982880001 0.0000000000000000 Ba
atom_frac 0.3002686288740000 0.3002686288740000 -0.0000000000000000 Ba
atom_frac 0.6997313711259999 0.6997313711260001 0.0000000000000000 Ba
atom_frac 0.5000000000000000 -0.0000000000000000 0.5000000000000000 S
atom_frac 1.0000000000000000 0.5000000000000001 0.5000000000000000 S
atom_frac 0.9293902264230000 0.9293902264230000 0.0000000000000000 S
atom_frac 0.0706097735770000 0.0706097735770000 -0.0000000000000000 S
atom_frac 0.7864979461990000 0.7864979461990000 0.0000000000000000 S
atom_frac 0.2135020538010000 0.2135020538010000 -0.0000000000000000 S
atom_frac 0.8607648381190000 0.3607648381190000 0.4999999999999999 S
atom_frac 0.3607648381190000 0.8607648381190000 0.4999999999999999 S
atom_frac 0.1392351618810000 0.6392351618810002 0.5000000000000001 S
atom_frac 0.6392351618810002 0.1392351618810001 0.5000000000000001 S
atom_frac 0.0000000000000000 -0.0000000000000000 0.0000000000000000 Zr
atom_frac 0.8567995472420000 0.8567995472420001 -0.0000000000000000 Zr
atom_frac 0.1432004527580000 0.1432004527580000 -0.0000000000000000 Zr
