#=======================================================
# FHI-aims file: ./geometry.in
# Created using the Atomic Simulation Environment (ASE)
# Fri Mar 15 09:18:32 2024
#=======================================================
lattice_vector -2.4671949669625537 2.4671949669625528 7.8104643905570335 
lattice_vector 2.4671949669625528 -2.4671949669625537 7.8104643905570335 
lattice_vector 2.4671949669625537 2.4671949669625537 -7.8104643905570343 
atom_frac 0.6415875971330836 0.6415875971330834 0.0000000000000001 Ba
atom_frac 0.3584124028669160 0.3584124028669157 -0.0000000000000000 Ba
atom_frac 0.5000000000000001 -0.0000000000000001 0.5000000000000000 S
atom_frac -0.0000000000000001 0.4999999999999996 0.4999999999999998 S
atom_frac 0.8360880679108420 0.8360880679108418 0.0000000000000000 S
atom_frac 0.1639119320891581 0.1639119320891577 0.0000000000000000 S
atom_frac 0.0000000000000002 -0.0000000000000002 0.0000000000000000 Zr
