#=======================================================
# FHI-aims file: ./geometry.in
# Created using the Atomic Simulation Environment (ASE)
# Fri Mar 15 09:30:00 2024
#=======================================================
lattice_vector -2.4824044649281962 2.4824044649281940 12.7136838266944761 
lattice_vector 2.4824044649281971 -2.4824044649281967 12.7136838266944761 
lattice_vector 2.4824044649281940 2.4824044649281980 -12.7136838266944761 
atom_frac 0.0000000000000000 0.0000000000000000 0.0000000000000000 Ba
atom_frac 0.1809398400907219 0.1809398400907219 0.0000000000000000 Ba
atom_frac 0.8190601599092779 0.8190601599092782 -0.0000000000000000 Ba
atom_frac 0.5000000000000000 0.5000000000000001 0.0000000000000001 S
atom_frac 0.3012648493074216 0.3012648493074217 0.0000000000000000 S
atom_frac 0.6987351506925783 0.6987351506925785 0.0000000000000001 S
atom_frac 0.9039534769757058 0.4039534769757063 0.4999999999999998 S
atom_frac 0.4039534769757059 0.9039534769757057 0.4999999999999998 S
atom_frac 0.0960465230242939 0.5960465230242935 0.4999999999999998 S
atom_frac 0.5960465230242940 0.0960465230242941 0.5000000000000000 S
atom_frac 0.3996661983063278 0.3996661983063279 0.0000000000000000 Zr
atom_frac 0.6003338016936720 0.6003338016936721 0.9999999999999999 Zr
