lattice_vector   5.0040839999999998    0.0000000000000000    0.0000000000000003
lattice_vector   0.0000000000000008    5.0040839999999998    0.0000000000000003
lattice_vector   0.0000000000000000    0.0000000000000000   45.7624959999999987
atom_frac   0.5000000000000000    0.5000000000000000    0.2110210000000000 Ba
atom_frac   0.5000000000000000    0.5000000000000000    0.1074510000000000 Ba
atom_frac   0.0000000000000000    0.0000000000000000    0.2889790000000000 Ba
atom_frac   0.5000000000000000    0.5000000000000000    0.0000000000000000 Ba
atom_frac   0.0000000000000000    0.0000000000000000    0.3925490000000000 Ba
atom_frac   0.0000000000000000    0.0000000000000000    0.7110210000000000 Ba
atom_frac   0.0000000000000000    0.0000000000000000    0.6074510000000000 Ba
atom_frac   0.5000000000000000    0.5000000000000000    0.7889790000000000 Ba
atom_frac   0.0000000000000000    0.0000000000000000    0.5000000000000000 Ba
atom_frac   0.5000000000000000    0.5000000000000000    0.8925490000000000 Ba
atom_frac   0.5000000000000000    0.5000000000000000    0.3338380000000000 Zr
atom_frac   0.0000000000000000    0.0000000000000000    0.0552650000000000 Zr
atom_frac   0.0000000000000000    0.0000000000000000    0.1661620000000000 Zr
atom_frac   0.5000000000000000    0.5000000000000000    0.4447350000000000 Zr
atom_frac   0.0000000000000000    0.0000000000000000    0.8338380000000000 Zr
atom_frac   0.5000000000000000    0.5000000000000000    0.5552650000000000 Zr
atom_frac   0.5000000000000000    0.5000000000000000    0.6661620000000000 Zr
atom_frac   0.0000000000000000    0.0000000000000000    0.9447350000000000 Zr
atom_frac   0.5000000000000000    0.5000000000000000    0.3902330000000001 S
atom_frac   0.5000000000000000    0.0000000000000000    0.3365760000000000 S
atom_frac   0.5000000000000000    0.0000000000000000    0.4452400000000000 S
atom_frac   0.5000000000000000    0.0000000000000000    0.0547600000000000 S
atom_frac   0.0000000000000000    0.0000000000000000    0.1097669999999999 S
atom_frac   0.5000000000000000    0.5000000000000000    0.2794720000000001 S
atom_frac   0.0000000000000000    0.0000000000000000    0.2205279999999999 S
atom_frac   0.0000000000000000    0.5000000000000000    0.3365760000000000 S
atom_frac   0.5000000000000000    0.0000000000000000    0.1634240000000000 S
atom_frac   0.0000000000000000    0.5000000000000000    0.4452400000000000 S
atom_frac   0.0000000000000000    0.5000000000000000    0.1634240000000000 S
atom_frac   0.0000000000000000    0.0000000000000000    0.0000000000000000 S
atom_frac   0.0000000000000000    0.5000000000000000    0.0547600000000000 S
atom_frac   0.0000000000000000    0.0000000000000000    0.8902330000000001 S
atom_frac   0.0000000000000000    0.5000000000000000    0.8365760000000000 S
atom_frac   0.0000000000000000    0.5000000000000000    0.9452400000000000 S
atom_frac   0.0000000000000000    0.5000000000000000    0.5547600000000000 S
atom_frac   0.5000000000000000    0.5000000000000000    0.6097669999999999 S
atom_frac   0.0000000000000000    0.0000000000000000    0.7794720000000001 S
atom_frac   0.5000000000000000    0.5000000000000000    0.7205279999999999 S
atom_frac   0.5000000000000000    0.0000000000000000    0.8365760000000000 S
atom_frac   0.0000000000000000    0.5000000000000000    0.6634240000000000 S
atom_frac   0.5000000000000000    0.0000000000000000    0.9452400000000000 S
atom_frac   0.5000000000000000    0.0000000000000000    0.6634240000000000 S
atom_frac   0.5000000000000000    0.5000000000000000    0.5000000000000000 S
atom_frac   0.5000000000000000    0.0000000000000000    0.5547600000000000 S
